%nproc=8
%mem=40GB
%chk=example.chk
# B3LYP 6-31g*  Freq(SaveNM) NoSymm SCRF(CPCM,solvent=chloroform)

 Calculation of force constants for R24 molecule in chloroform excited singlet optimized by B3LYPp2p

0 1
C      16.29618500    -12.23691300     -0.12062700
H      15.74795100    -12.60783900      0.75435600
H      17.28202600    -12.71605300     -0.12395600
H      15.75829500    -12.57435100     -1.01535800
C      16.41650000    -10.70976100     -0.09082800
H      16.98962500    -10.40485900      0.79637700
H      16.99785300    -10.37110900     -0.96023700
C      15.05792600     -9.99743600     -0.08345900
H      14.47624200    -10.33643100      0.78670800
H      14.48427600    -10.30291600     -0.97120300
C      15.16985400     -8.46787300     -0.05372800
H      15.75023000     -8.12855500     -0.92426300
H      15.74261400     -8.16224400      0.83417400
C      13.80779100     -7.76233900     -0.04604500
H      13.23680600     -8.06203000     -0.93512200
H      13.22879700     -8.09645000      0.82538900
C      13.94027600     -6.23310600     -0.01550100
H      14.53216100     -5.90398000     -0.88193400
H      14.52445800     -5.93819800      0.86824300
C      12.62511300     -5.50073300     -0.00714600
C      11.34376100     -6.00019500     -0.02827500
H      11.12536300     -7.06140800     -0.05458800
C      10.33591400     -5.00223700     -0.01262000
H       9.27459600     -5.22740900     -0.02553300
C      10.83118100     -3.71086700      0.02108100
C      10.11539800     -2.46663400      0.04398500
C      10.61828600     -1.17167800      0.08315200
H      11.68135000     -0.95621200      0.10264500
C       9.63111200     -0.17255600      0.09575600
H       9.84109900      0.88778600      0.12555600
C       8.32648100     -0.66258900      0.06679400
C       7.08632100      0.06167100      0.06845200
C       5.83522500     -0.59125900      0.04244100
H       5.81396300     -1.67971000      0.02354100
C       7.00671000      1.49874800      0.09683600
C       5.70571700      2.14270200      0.09219100
C       4.51298700      1.33093200      0.05901800
C       3.19016000      1.85585800      0.04691400
C       2.73190100      3.18662300      0.05062400
H       3.43198600      4.01196500      0.06308000
C       1.34301400      3.31165700      0.03904900
C       0.70702200      2.04228000      0.01689000
C      -0.19267900      5.69061300      1.58360000
H      -1.22694100      6.06127800      1.55160000
H      -0.16504500      4.99426200      2.43326600
C       0.76222900      6.88356500      1.84052100
H       0.67289800      7.57305600      0.98708300
C       2.25219500      6.47477300      1.90374200
H       2.85007700      7.39147700      2.00036700
H       2.54304500      6.03540000      0.93938500
C       2.64221000      5.50880900      3.03011900
H       2.43908000      5.93574700      4.01848700
H       3.71315700      5.28081200      2.98281700
H       2.10384200      4.55747100      2.95863400
C       0.34781800      7.67900500      3.10070300
H       0.30886800      6.99848100      3.96128000
H       1.14077500      8.40931700      3.32286900
C      -0.98300600      8.43711800      2.97826800
H      -0.95740300      9.04910800      2.06483600
H      -1.81247300      7.72787400      2.84881400
C      -1.30000400      9.35152300      4.17416900
H      -2.19494000      9.94167300      3.93456000
H      -0.48273900     10.07613100      4.30129900
C      -1.53397000      8.61083200      5.49654900
H      -2.34726300      7.88021500      5.40037000
H      -1.80790200      9.31004900      6.29510600
H      -0.63976100      8.06970100      5.82587700
N       8.02635800      2.36169600      0.12941400
N       5.76257500      3.47590600      0.12219800
N       4.63590500     -0.01659800      0.03785800
S      12.59456800     -3.75027800      0.03352700
S       8.35876000     -2.43169800      0.02196200
S       7.36838700      3.88348400      0.15340600
S       1.83580800      0.71560900      0.02129100
Si      0.00000000      4.66197300      0.00000000
C     -16.29618500    -12.23691300      0.12062500
H     -15.74795100    -12.60783900     -0.75435900
H     -17.28202500    -12.71605300      0.12395300
H     -15.75829500    -12.57435200      1.01535500
C     -16.41650000    -10.70976100      0.09082700
H     -16.98962500    -10.40485900     -0.79637800
H     -16.99785300    -10.37111000      0.96023600
C     -15.05792600     -9.99743600      0.08345900
H     -14.47624200    -10.33643100     -0.78670900
H     -14.48427600    -10.30291700      0.97120200
C     -15.16985400     -8.46787300      0.05372800
H     -15.75023000     -8.12855600      0.92426300
H     -15.74261400     -8.16224400     -0.83417300
C     -13.80779100     -7.76233900      0.04604500
H     -13.23680600     -8.06203000      0.93512200
H     -13.22879800     -8.09645000     -0.82538900
C     -13.94027600     -6.23310600      0.01550200
H     -14.53216100     -5.90398000      0.88193500
H     -14.52445800     -5.93819700     -0.86824100
C     -12.62511200     -5.50073300      0.00714800
C     -11.34376100     -6.00019500      0.02827600
H     -11.12536300     -7.06140800      0.05458800
C     -10.33591400     -5.00223700      0.01262100
H      -9.27459500     -5.22741000      0.02553300
C     -10.83118100     -3.71086800     -0.02107900
C     -10.11539800     -2.46663400     -0.04398400
C     -10.61828600     -1.17167800     -0.08315000
H     -11.68135000     -0.95621200     -0.10264100
C      -9.63111200     -0.17255600     -0.09575400
H      -9.84109900      0.88778600     -0.12555400
C      -8.32648100     -0.66258900     -0.06679400
C      -7.08632100      0.06167100     -0.06845400
C      -5.83522500     -0.59126000     -0.04244300
H      -5.81396300     -1.67971000     -0.02354300
C      -7.00671000      1.49874800     -0.09683800
C      -5.70571700      2.14270200     -0.09219300
C      -4.51298700      1.33093200     -0.05902000
C      -3.19016000      1.85585800     -0.04691600
C      -2.73190100      3.18662200     -0.05062500
H      -3.43198600      4.01196500     -0.06308000
C      -1.34301400      3.31165700     -0.03904900
C      -0.70702200      2.04228000     -0.01689200
C       0.19267900      5.69061400     -1.58360000
H       1.22694100      6.06127900     -1.55159900
H       0.16504500      4.99426400     -2.43326600
C      -0.76223000      6.88356600     -1.84052000
H      -0.67289800      7.57305700     -0.98708100
C      -2.25219500      6.47477500     -1.90374100
H      -2.85007700      7.39147800     -2.00036500
H      -2.54304400      6.03540100     -0.93938400
C      -2.64221100      5.50881100     -3.03011800
H      -2.43908100      5.93574900     -4.01848600
H      -3.71315800      5.28081400     -2.98281600
H      -2.10384200      4.55747300     -2.95863400
C      -0.34781800      7.67900700     -3.10070200
H      -0.30886800      6.99848300     -3.96127900
H      -1.14077500      8.40931900     -3.32286700
C       0.98300600      8.43712000     -2.97826700
H       0.95740300      9.04910900     -2.06483400
H       1.81247300      7.72787600     -2.84881300
C       1.30000400      9.35152600     -4.17416600
H       2.19494000      9.94167500     -3.93455700
H       0.48273900     10.07613400     -4.30129600
C       1.53396900      8.61083500     -5.49654700
H       2.34726200      7.88021800     -5.40036900
H       1.80790100      9.31005200     -6.29510400
H       0.63976000      8.06970500     -5.82587500
N      -8.02635800      2.36169600     -0.12941300
N      -5.76257500      3.47590600     -0.12219800
N      -4.63590500     -0.01659800     -0.03786000
S     -12.59456800     -3.75027800     -0.03352400
S      -8.35876000     -2.43169900     -0.02196200
S      -7.36838700      3.88348300     -0.15341100
S      -1.83580800      0.71560900     -0.02129300

