# HF 6-31g

Test

0 1
C       0.02333392      0.65544768      0.33448638
C      -0.70062444     -0.65671232      0.16430506
O       1.22407267      0.77227106      0.43481369
H      -0.63660237      1.55281222      0.36428880
H       0.01011726     -1.48595285      0.14432894
H      -1.41675995     -0.79600937      0.98498779
H      -1.28559107     -0.64143127     -0.76486360

