# Pedone 2009 potential
# eV,Ao (units metal)
# Cij=4*epsilon*sigma^12, E(r=sigma)=0

mass  1  15.999  #  1  O   3  -1.2
mass  2  47.867  #  2  Ti  6   2.4

pair_style hybrid/overlay morse 15 lj/cut 10 coul/long 15
kspace_style ewald 1e-8  # kspace_style pppm 1e-4

pair_coeff  * *  coul/long
pair_coeff  1 1  lj/cut  5.5e-12   10   # Cij=22
pair_coeff  1 2  lj/cut  0.25e-12  10   # Cij=1
pair_coeff  1 1  morse  0.042395  1.379316  3.618701
pair_coeff  1 2  morse  0.024235  2.254703  2.708943

# charge     3_morse_parameters        Cij
O  -1.2  0.042395  1.379316  3.618701 22.0
Ag  0.6  0.088423  3.439162  2.265956  1.0
Al  1.8  0.361581  1.900442  2.164818  0.9
Ba  1.2  0.065011  1.547596  3.393410  5.0
Be  1.2  0.239919  2.527420  1.815405  1.0
Ca  1.2  0.030211  2.241334  2.923245  5.0
Co  1.2  0.012958  2.361272  2.756282  3.0
Cr  1.8  0.399561  1.785079  2.340810  1.0
Cu  0.6  0.090720  3.802168  2.055405  1.0
Er  1.8  0.040448  2.294078  2.837722  3.0
Eu  1.8  0.000139  2.013200  4.351360  3.0
Fe  1.2  0.078171  1.822638  2.658163  2.0
Fe  1.8  0.418981  1.620376  2.382183  2.0
Gd  1.8  0.000132  2.013000  4.351589  3.0
Ge  2.4  0.158118  2.294230  2.261313  5.0
K   0.6  0.011612  2.062605  3.305308  5.0
Li  0.6  0.001114  3.429506  2.681360  1.0
Mg  1.2  0.038908  2.281000  2.586153  5.0
Mn  1.2  0.029658  1.997543  2.852075  3.0
Na  0.6  0.023363  1.763867  3.006315  5.0
Nd  1.8  0.014580  1.825100  3.398717  3.0
Ni  1.2  0.029356  2.679137  2.500754  3.0
P   3.0  0.831326  2.585833  1.800790  1.0
Sc  1.8  0.000333  3.144445  3.200000  2.6
Si  2.4  0.340554  2.006700  2.100000  1.0
Sn  2.4  0.079400  2.156770  2.633076  3.0
Sr  1.2  0.019623  1.886000  3.328330  3.0
Ti  2.4  0.024235  2.254703  2.708943  1.0
V   2.2  0.04      2.00      2.50      1.0
Zn  1.2  0.001221  3.150679  2.851850  1.0
Zr  2.4  0.206237  2.479675  2.436997  1.0
